53 40 21 72 74 73 58 
89 18 48 47 36 46 45 86 38 44 14 87 2 57 41 22 75 56 4 55 25 54 12 26 
52 88 7 82 8 83 60 5 84 17 61 16 91 100 37 98 85 93 59 94 
50 33 51 71 65 35 34 29 68 80 77 28 
95 92 97 42 43 15 39 23 67 24 76 3 79 78 81 9 66 20 70 
27 69 1 30 62 11 64 49 19 63 90 32 10 31 
6 99 96 13 
